<number of tasks>
50

<cycle time>
1000

<order strength>
0.205


<task times>
1 343
2 219
3 124
4 224
5 23
6 76
7 172
8 335
9 184
10 21
11 88
12 88
13 505
14 489
15 159
16 22
17 89
18 323
19 39
20 61
21 408
22 248
23 207
24 246
25 142
26 111
27 342
28 518
29 111
30 226
31 54
32 243
33 189
34 70
35 271
36 558
37 297
38 156
39 313
40 165
41 65
42 21
43 211
44 381
45 107
46 342
47 49
48 406
49 250
50 36

<precedence relations>
1,9
1,10
2,7
3,10
3,11
4,8
5,17
6,12
7,17
9,13
10,14
10,15
10,18
11,16
12,31
12,43
13,24
13,46
14,35
15,22
15,25
16,19
16,23
16,27
17,20
18,21
19,31
20,49
21,29
22,27
23,28
24,26
25,30
27,32
27,35
27,42
28,32
28,34
29,33
29,36
29,37
30,36
30,37
31,38
32,45
33,40
33,41
34,42
34,43
36,39
38,44
40,48
43,46
43,47
43,50
45,49

<end>
